80 8
86 96
8 6
67 91
39 69
62 83
57 77
26 22
19 70
90 6
70 17
82 9
28 20
2 88
35 20
80 41
24 98
48 45
38 69
46 1
38 41
23 36
68 88
14 81
38 70
51 29
33 35
99 22
62 4
67 51
5 32
95 42
49 78
92 6
66 5
21 2
32 17
70 17
80 25
87 50
91 21
41 24
30 76
21 77
54 91
59 56
100 42
64 84
54 28
38 24
92 4
14 83
55 46
12 97
25 95
80 80
55 18
23 1
17 32
62 10
56 56
100 79
2 59
38 8
7 12
40 58
60 79
25 1
4 42
17 23
88 5
45 74
28 94
80 8
56 67
22 26
3 41
44 18
63 41
8 68
56 38
157 507
228 730
65 397
295 653
148 604
199 447
145 662
143 395
